%chk=water.chk
#p b3lpy/6-31G(d)

0 1
  O     0.  0.  0.
  H     1.  0.  0.
  H     0.  0.  1.


END OF FILE AGAIN
